c A SAT instance generated from a 3-CNF formula that had 30 clauses and 10 variables
p cnf 10 30
-6 7 4 0
10 7 1 0
9 3 -10 0
-1 2 9 0
-3 -1 9 0
-1 -3 8 0
3 2 5 0
-5 -6 -2 0
-7 -4 1 0
-1 -3 -7 0
-8 1 6 0
10 -5 1 0
9 -2 -10 0
-4 9 5 0
7 9 -3 0
7 -1 -10 0
1 10 4 0
4 9 -3 0
-1 6 9 0
-8 7 2 0
-7 8 1 0
-9 -7 -6 0
2 5 -10 0
-3 1 -9 0
6 9 10 0
-1 9 -7 0
6 8 2 0
-8 2 -3 0
7 8 -9 0
8 3 7 0
